language Essence 1.3

letting class be function(1 --> 3, 2 --> 2, 3 --> 1, 4 --> 1, 5 --> 1)
letting deck_length be 57
letting deck_width be 7
letting length be function(1 --> 29, 2 --> 1, 3 --> 4, 4 --> 2, 5 --> 3)
letting n_classes be 3
letting n_containers be 5
letting separation be function({1, 3} --> 21, {2, 3} --> 42)
letting width be function(1 --> 7, 2 --> 5, 3 --> 2, 4 --> 7, 5 --> 3)
